************************************************************************
file with basedata            : n/a
initial value random generator: n/a
************************************************************************
projects                      :  1
jobs (incl. supersource/sink ):  122
horizon                       :  638
RESOURCES
  - renewable                 :  4   R
  - nonrenewable              :  0   N
  - doubly constrained        :  0   D
************************************************************************
PROJECT INFORMATION:
pronr.  #jobs rel.date duedate tardcost  MPM-Time
    1    120      0       94      105       94
************************************************************************
PRECEDENCE RELATIONS:
jobnr.    #modes  #successors   successors
   1        1          3           2   3   4
   2        1          3           7  10  63
   3        1          3           5   6   8
   4        1          3          16  96 108
   5        1          3          12  27  38
   6        1          3           9  23  25
   7        1          1          35
   8        1          3          11  19  52
   9        1          1          31
  10        1          3          13  24  42
  11        1          1          56
  12        1          3          18  21  35
  13        1          3          14  15  17
  14        1          3          48  74 101
  15        1          2          83  99
  16        1          1          30
  17        1          2          20  51
  18        1          1          43
  19        1          2          22 119
  20        1          1          26
  21        1          3          29  32  41
  22        1          1         115
  23        1          3          39  40  95
  24        1          3          37  44  69
  25        1          1          66
  26        1          3          28  34  79
  27        1          1          36
  28        1          1          55
  29        1          1          54
  30        1          3          33  65  72
  31        1          1         120
  32        1          1         112
  33        1          3          46  64  70
  34        1          1          75
  35        1          2          61  77
  36        1          1         105
  37        1          1          45
  38        1          3          53  57  82
  39        1          1         104
  40        1          2          87 116
  41        1          2          58 109
  42        1          1          47
  43        1          1         109
  44        1          2          49  60
  45        1          1          93
  46        1          1          91
  47        1          1          79
  48        1          2          66  81
  49        1          3          50  81 101
  50        1          1          68
  51        1          1          56
  52        1          1          62
  53        1          1         121
  54        1          1          59
  55        1          1          57
  56        1          3          86  91 106
  57        1          1          67
  58        1          1          72
  59        1          1          75
  60        1          1          97
  61        1          1         103
  62        1          1          78
  63        1          1          87
  64        1          2          73  84
  65        1          3          90  97  98
  66        1          2          71  80
  67        1          1          70
  68        1          1         109
  69        1          1         112
  70        1          1          75
  71        1          1          99
  72        1          2          76  89
  73        1          1         111
  74        1          2          89  91
  75        1          2          80  95
  76        1          1         102
  77        1          1         113
  78        1          2         100 110
  79        1          1          85
  80        1          1          94
  81        1          1         110
  82        1          2          88  89
  83        1          1          85
  84        1          1         111
  85        1          2          93  95
  86        1          2          94 115
  87        1          1          88
  88        1          1          92
  89        1          1         117
  90        1          1         100
  91        1          1          93
  92        1          2         103 107
  93        1          1         115
  94        1          1         114
  95        1          1         113
  96        1          1         106
  97        1          2          99 105
  98        1          1         117
  99        1          1         114
 100        1          1         114
 101        1          1         104
 102        1          1         103
 103        1          1         120
 104        1          1         121
 105        1          1         116
 106        1          2         107 117
 107        1          1         111
 108        1          1         110
 109        1          1         118
 110        1          1         112
 111        1          1         113
 112        1          1         119
 113        1          1         118
 114        1          1         119
 115        1          1         116
 116        1          1         118
 117        1          1         120
 118        1          1         121
 119        1          1         122
 120        1          1         122
 121        1          1         122
 122        1          0        
************************************************************************
REQUESTS/DURATIONS:
jobnr. mode duration  R 1  R 2  R 3  R 4
------------------------------------------------------------------------
  1      1     0    
  2      1     5       0   0   0   0   0
                       0   0   0   0   0
                       0   0   0   0   0
                       9   9   9   9   9
  3      1     4       0   0   0   0
                       0   8   8   8
                       0  10  10  10
                       0   0   0   0
  4      1     7       5   5   5   5   5   5   5
                       3   3   3   3   3   3   3
                       9   9   9   9   9   9   9
                       0   0   0   0   0   0   0
  5      1     6       0   0   0   0   0   0
                       0   0   0   0   0   0
                       0   0   0   0   0   0
                       5   5   5   5   0   5
  6      1     4       0   0   0   0
                       0   0   0   0
                       1   1   1   1
                       6   6   6   6
  7      1    10       0   0   0   0   0   0   0   0   0   0
                       1   1   1   0   1   1   1   1   1   1
                       0   0   0   0   0   0   0   0   0   0
                       0   0   0   0   0   0   0   0   0   0
  8      1    10       0   0   0   0   0   0   0   0   0   0
                       9   0   9   9   9   9   9   9   9   9
                       6   0   6   6   6   6   6   6   6   6
                       6   0   6   6   6   6   6   6   6   6
  9      1     8       0   0   0   0   0   0   0   0
                       0   6   6   6   6   6   6   6
                       0   9   9   9   9   9   9   9
                       0   0   0   0   0   0   0   0
 10      1    10       5   5   5   5   5   5   0   5   5   5
                       2   2   2   2   2   2   0   2   2   2
                       2   2   2   2   2   2   0   2   2   2
                       4   4   4   4   4   4   0   4   4   4
 11      1     7       0   0   0   0   0   0   0
                       4   4   4   4   0   4   4
                       0   0   0   0   0   0   0
                       0   0   0   0   0   0   0
 12      1     6       0   0   0   0   0   0
                       0   0   0   0   0   0
                       2   2   2   2   2   2
                       9   9   9   9   9   9
 13      1     1       0
                       1
                       0
                       0
 14      1     3       4   4   4
                       0   0   0
                      10  10  10
                       3   3   3
 15      1     1       0
                       6
                       0
                       0
 16      1     7       0   0   0   0   0   0   0
                       0   0   0   0   0   0   0
                       0   0   0   0   0   0   0
                       8   8   8   8   8   8   8
 17      1     9       0   0   0   0   0   0   0   0   0
                       3   3   3   3   3   3   3   3   3
                       2   2   2   2   2   2   2   2   2
                       0   0   0   0   0   0   0   0   0
 18      1     6       0   0   0   0   0   0
                       0   0   0   0   0   0
                       1   1   1   1   1   1
                       1   1   1   1   1   1
 19      1     9      10  10  10  10  10  10  10  10  10
                       9   9   9   9   9   9   9   9   9
                       6   6   6   6   6   6   6   6   6
                       3   3   3   3   3   3   3   3   3
 20      1    10       4   4   4   4   4   4   4   4   0   4
                      10  10  10  10  10  10  10  10   0  10
                       0   0   0   0   0   0   0   0   0   0
                       7   7   7   7   7   7   7   7   0   7
 21      1    10       9   9   9   0   9   9   9   9   9   9
                       0   0   0   0   0   0   0   0   0   0
                       0   0   0   0   0   0   0   0   0   0
                       0   0   0   0   0   0   0   0   0   0
 22      1     3       0   0   0
                       3   3   3
                       0   0   0
                       0   0   0
 23      1     7       2   2   2   2   2   0   2
                       0   0   0   0   0   0   0
                       0   0   0   0   0   0   0
                       6   6   6   6   6   0   6
 24      1     7       0   0   0   0   0   0   0
                      10  10  10  10  10  10   0
                       0   0   0   0   0   0   0
                       8   8   8   8   8   8   0
 25      1     4       5   5   5   0
                       1   1   1   0
                       9   9   9   0
                       0   0   0   0
 26      1     9       0   0   0   0   0   0   0   0   0
                      10  10  10  10  10  10  10  10   0
                       1   1   1   1   1   1   1   1   0
                       0   0   0   0   0   0   0   0   0
 27      1     1       7
                       7
                       0
                       0
 28      1     6       1   1   1   1   1   1
                       0   0   0   0   0   0
                       6   6   6   6   6   6
                       0   0   0   0   0   0
 29      1     3      10  10  10
                       0   0   0
                       4   4   4
                       1   1   1
 30      1     2       8   8
                       3   3
                       4   4
                      10  10
 31      1     7       6   6   6   6   6   6   6
                      10  10  10  10  10  10  10
                       0   0   0   0   0   0   0
                       0   0   0   0   0   0   0
 32      1    10       1   1   1   1   1   1   1   1   1   1
                       0   0   0   0   0   0   0   0   0   0
                       1   1   1   1   1   1   1   1   1   1
                       1   1   1   1   1   1   1   1   1   1
 33      1     6       0   0   0   0   0   0
                       6   6   6   6   6   6
                       0   0   0   0   0   0
                       4   4   4   4   4   4
 34      1     3       7   0   7
                       0   0   0
                       6   0   6
                       0   0   0
 35      1     8       0   0   0   0   0   0   0   0
                       6   6   6   0   6   6   6   6
                       6   6   6   0   6   6   6   6
                       0   0   0   0   0   0   0   0
 36      1     4       0   0   3   3
                       0   0   1   1
                       0   0   0   0
                       0   0   0   0
 37      1     8       4   4   4   4   4   4   4   4
                       1   1   1   1   1   1   1   1
                       6   6   6   6   6   6   6   6
                       0   0   0   0   0   0   0   0
 38      1     4       4   4   4   0
                       4   4   4   0
                       4   4   4   0
                       0   0   0   0
 39      1     8      10  10  10  10   0  10  10  10
                       0   0   0   0   0   0   0   0
                       0   0   0   0   0   0   0   0
                       4   4   4   4   0   4   4   4
 40      1     7       3   3   3   3   3   3   3
                       0   0   0   0   0   0   0
                       7   7   7   7   7   7   7
                       0   0   0   0   0   0   0
 41      1    10       0   0   0   0   0   0   0   0   0   0
                       0   0   0   0   0   0   0   0   0   0
                       4   4   4   4   4   4   4   4   4   4
                       1   1   1   1   1   1   1   1   1   1
 42      1     8       1   1   1   1   1   1   1   1
                       0   0   0   0   0   0   0   0
                       0   0   0   0   0   0   0   0
                       9   9   9   9   9   9   9   9
 43      1     7       9   9   9   9   9   9   0
                       7   7   7   7   7   7   0
                       0   0   0   0   0   0   0
                       0   0   0   0   0   0   0
 44      1     7       0   0   0   0   0   0   0
                       0   0   0   0   0   0   0
                       7   7   7   7   7   7   7
                       0   0   0   0   0   0   0
 45      1     6       2   2   2   2   2   2
                       0   0   0   0   0   0
                       1   1   1   1   1   1
                       0   0   0   0   0   0
 46      1     2      10   0
                       0   0
                       7   0
                       4   0
 47      1     9       0   0   0   0   0   0   0   0   0
                       0   0   0   0   0   0   0   0   0
                      10  10  10  10  10  10  10  10  10
                       0   0   0   0   0   0   0   0   0
 48      1     8       3   3   3   0   3   3   3   3
                       8   8   8   0   8   8   8   8
                       0   0   0   0   0   0   0   0
                       8   8   8   0   8   8   8   8
 49      1     6       6   0   6   6   6   6
                       7   0   7   7   7   7
                       0   0   0   0   0   0
                       4   0   4   4   4   4
 50      1     2       0   0
                       0   0
                       6   6
                       5   5
 51      1     1       2
                       2
                       0
                       0
 52      1     1       0
                       0
                       7
                       5
 53      1     6       2   2   2   2   2   2
                       0   0   0   0   0   0
                      10  10  10  10  10  10
                       0   0   0   0   0   0
 54      1    10       3   3   3   0   3   3   3   3   3   0
                       0   0   0   0   0   0   0   0   0   0
                       0   0   0   0   0   0   0   0   0   0
                      10  10  10   0  10  10  10  10  10   0
 55      1     2       1   1
                       8   8
                       0   0
                       0   0
 56      1     4       0   0   0   0
                       1   0   1   1
                       7   0   7   7
                       0   0   0   0
 57      1     9       8   8   8   8   8   8   8   8   8
                      10  10  10  10  10  10  10  10  10
                       0   0   0   0   0   0   0   0   0
                       8   8   8   8   8   8   8   8   8
 58      1     2       3   3
                       0   0
                       0   0
                      10  10
 59      1     1       0
                       0
                       0
                      10
 60      1     8       9   9   9   9   9   9   0   9
                       0   0   0   0   0   0   0   0
                       0   0   0   0   0   0   0   0
                       6   6   6   6   6   6   0   6
 61      1     3       0   6   6
                       0   2   2
                       0  10  10
                       0   0   0
 62      1     4       0   0   0   0
                       8   8   0   8
                       7   7   0   7
                       0   0   0   0
 63      1     4       0   0   0   0
                       0   0   0   0
                      10  10  10  10
                       0   0   0   0
 64      1     5       0   0   0   0   0
                       8   8   8   8   8
                       1   1   1   1   1
                       0   0   0   0   0
 65      1     5       0   0   0   0   0
                       3   3   3   3   3
                       3   3   3   3   3
                       0   0   0   0   0
 66      1     3       0   0   0
                       1   1   0
                       8   8   0
                       0   0   0
 67      1     7       5   5   5   5   5   5   5
                       0   0   0   0   0   0   0
                       3   3   3   3   3   3   3
                       0   0   0   0   0   0   0
 68      1     2       0   0
                       0   0
                       1   1
                       0   0
 69      1     5       0   0   0   0   0
                       5   5   5   5   5
                       6   6   6   6   6
                       0   0   0   0   0
 70      1     2       9   9
                      10  10
                       0   0
                       0   0
 71      1     8       0   0   0   0   0   0   0   0
                      10  10  10  10   0  10  10  10
                       0   0   0   0   0   0   0   0
                       0   0   0   0   0   0   0   0
 72      1     7       0   0   0   0   0   0   0
                       0   0   0   0   0   0   0
                       7   7   7   7   7   7   0
                       0   0   0   0   0   0   0
 73      1     5       0   0   0   0   0
                       5   0   0   5   5
                       0   0   0   0   0
                      10   0   0  10  10
 74      1     6       6   6   6   6   6   6
                       5   5   5   5   5   5
                       0   0   0   0   0   0
                       1   1   1   1   1   1
 75      1     1       9
                       0
                       3
                       0
 76      1     2       6   6
                       4   4
                       0   0
                       0   0
 77      1     2       0   0
                       0   0
                       0   0
                       4   4
 78      1     5       0   0   0   0   0
                       0   0   0   0   0
                       0   0   0   0   0
                       4   4   4   4   4
 79      1    10       0   0   0   0   0   0   0   0   0   0
                       5   5   5   5   0   5   5   5   5   5
                       0   0   0   0   0   0   0   0   0   0
                       0   0   0   0   0   0   0   0   0   0
 80      1    10       5   5   5   5   5   5   5   5   5   5
                       0   0   0   0   0   0   0   0   0   0
                       0   0   0   0   0   0   0   0   0   0
                       6   6   6   6   6   6   6   6   6   6
 81      1     2       0   6
                       0   8
                       0   0
                       0  10
 82      1     2       0   0
                      10  10
                       0   0
                       7   7
 83      1     6       0   0   0   0   0   0
                       7   7   7   7   7   7
                       0   0   0   0   0   0
                       5   5   5   5   5   5
 84      1     9       7   0   7   7   7   7   7   7   0
                       8   0   8   8   8   8   8   8   0
                      10   0  10  10  10  10  10  10   0
                       0   0   0   0   0   0   0   0   0
 85      1     7       4   4   4   4   4   4   4
                       0   0   0   0   0   0   0
                       7   7   7   7   7   7   7
                      10  10  10  10  10  10  10
 86      1     2       0   0
                       6   6
                       0   0
                       1   1
 87      1     4       7   7   0   7
                       8   8   0   8
                       0   0   0   0
                       5   5   0   5
 88      1     5       0   0   0   0   0
                       0   0   0   0   0
                       0   0   0   0   0
                       6   6   6   6   6
 89      1     4       0   0   0   0
                       0   0   0   0
                       0   0   0   0
                       4   4   4   0
 90      1     2       0   0
                       2   2
                       2   2
                       0   0
 91      1     2       0   0
                       3   3
                       0   0
                       9   9
 92      1     6       9   9   9   9   9   9
                       0   0   0   0   0   0
                      10  10  10  10  10  10
                       3   3   3   3   3   3
 93      1     4       0   0   0   0
                       9   9   0   9
                       0   0   0   0
                      10  10   0  10
 94      1     1       0
                       0
                       0
                       2
 95      1     4       0   0   0   0
                       9   9   9   9
                       2   2   2   2
                       0   0   0   0
 96      1     6       6   0   6   6   6   6
                       0   0   0   0   0   0
                       7   0   7   7   7   7
                       0   0   0   0   0   0
 97      1    10      10  10  10  10  10  10  10  10  10  10
                       8   8   8   8   8   8   8   8   8   8
                       0   0   0   0   0   0   0   0   0   0
                       6   6   6   6   6   6   6   6   6   6
 98      1     7       0   0   0   0   0   0   0
                       0   0   0   0   0   0   0
                       0   0   0   0   0   0   0
                       5   5   5   5   5   0   5
 99      1     9       3   3   3   3   3   3   3   3   3
                       0   0   0   0   0   0   0   0   0
                       0   0   0   0   0   0   0   0   0
                       9   9   9   9   9   9   9   9   9
100      1     3       0   0   0
                       4   4   4
                       0   0   0
                       7   7   7
101      1     3       0   0   0
                       0   0   0
                       0   0   0
                       0   0   0
102      1     3       0   0   0
                       0   0   0
                       4   0   4
                       3   0   3
103      1     3       9   9   0
                       0   0   0
                       1   1   0
                      10  10   0
104      1     5       0   0   0   0   0
                       7   0   7   7   7
                       4   0   4   4   4
                       3   0   3   3   3
105      1     5       0   0   0   0   0
                       0   0   0   0   0
                       9   9   9   9   9
                       0   0   0   0   0
106      1     6       8   8   8   8   8   0
                       3   3   3   3   3   0
                      10  10  10  10  10   0
                       0   0   0   0   0   0
107      1    10       2   2   2   2   2   2   0   2   2   2
                       4   4   4   4   4   4   0   4   4   4
                       0   0   0   0   0   0   0   0   0   0
                       0   0   0   0   0   0   0   0   0   0
108      1     5       0   0   0   0   0
                       7   7   7   7   7
                       0   0   0   0   0
                       6   6   6   6   6
109      1     4       5   5   5   5
                       0   0   0   0
                       0   0   0   0
                       0   0   0   0
110      1     1       4
                       0
                       0
                       0
111      1    10       0   0   0   0   0   0   0   0   0   0
                       0   0   0   0   0   0   0   0   0   0
                       4   4   4   0   4   4   4   4   4   4
                      10  10  10   0  10  10  10  10  10  10
112      1     2       0   0
                       4   4
                       7   7
                       0   0
113      1     9       0   0   0   0   0   0   0   0   0
                       0   0   0   0   0   0   0   0   0
                      10  10  10   0  10  10  10   0  10
                       5   5   5   0   5   5   5   0   5
114      1     7       0   0   0   0   0   0   0
                       1   1   1   1   1   1   1
                       5   5   5   5   5   5   5
                       0   0   0   0   0   0   0
115      1     4       0   0   0   0
                       0   0   0   0
                       9   9   9   9
                       3   3   3   3
116      1     3       7   7   7
                       3   3   3
                       0   0   0
                       0   0   0
117      1     2       0   0
                       0   8
                       0   0
                       0   1
118      1     3       0   0   0
                       0   0   0
                       4   0   4
                       0   0   0
119      1     5       0   0   0   0   0
                       0   0   0   0   0
                       3   3   3   3   3
                       2   2   2   2   2
120      1     1       0
                       4
                       1
                       0
121      1     7       0   0   0   0   0   0   0
                       0   2   2   2   2   2   2
                       0   0   0   0   0   0   0
                       0   0   0   0   0   0   0
122      1     0    
************************************************************************
RESOURCEAVAILABILITIES:
  R 1  R 2  R 3  R 4

  36  36  36  36   0  36  36  36  36  36  36  36   0  36  36  36   0  36  36  36  36  36  36  36  36  36  36  36  36  36  36  36  36  36   0   0  36  36  36  36  36  36  36  36  36  36  36  36  36  36  36  36  36  36   0  36  36  36   0  36  36  36  36  36  36  36  36  36  36   0  36  36  36  36  36  36  36  36  36  36  36  36   0  36  36  36   0  36  36  36  36  36  36  36  36  36  36  36  36  36  36  36  36  36  36  36  36  36  36  36  36  36  36  36  36  36  36  36  36  36  36  36  36  36  36  36   0  36  36  36  36  36  36   0  36   0  36  36   0  36  36  36   0  36  36  36  36  36   0  36  36  36  36  36  36   0  36  36  36  36  36  36  36   0  36  36  36  36  36  36  36  36  36  36  36  36  36  36  36  36  36  36   0  36  36  36  36  36  36  36  36   0  36  36  36  36  36  36  36  36   0  36  36  36  36  36  36  36  36  36   0  36  36  36  36  36  36  36  36  36  36  36  36  36  36  36  36  36  36  36  36  36  36  36   0  36  36  36  36  36  36  36  36  36  36  36  36  36  36  36  36  36   0  36  36  36  36  36  36  36  36   0  36  36  36  36  36  36  36   0  36  36   0  36  36  36  36  36  36   0  36  36  36  36  36  36  36  36  36  36  36  36  36  36  36  36  36  36  36   0  36   0  36  36  36  36   0  36  36  36  36   0  36  36  36  36  36  36  36   0  36   0   0   0  36  36  36  36  36   0  36  36  36  36  36  36  36  36  36  36  36  36  36  36  36  36  36  36  36  36  36  36  36  36  36  36  36  36  36  36  36  36  36  36  36  36  36  36   0  36  36  36  36  36  36  36  36  36  36  36  36  36  36   0  36  36  36   0  36  36  36  36  36  36  36  36  36  36  36  36  36   0  36  36   0   0  36  36  36  36  36  36  36  36  36  36  36  36   0  36  36  36  36  36  36  36  36  36  36  36  36  36  36  36   0  36  36  36  36  36  36  36  36  36  36  36  36  36  36  36  36  36  36  36  36  36  36  36  36  36  36  36  36  36  36  36  36  36  36  36  36  36  36  36  36  36  36  36  36  36  36  36  36  36  36   0  36  36  36  36  36  36  36  36  36  36  36  36  36  36  36  36  36  36  36  36  36  36  36  36   0  36  36  36  36  36  36  36  36  36  36  36  36  36  36  36  36   0  36  36  36  36  36  36  36  36  36  36  36  36  36  36  36  36  36  36  36  36   0  36  36  36  36  36  36  36  36  36  36  36  36  36  36   0  36  36  36  36  36  36  36  36   0  36  36  36  36  36  36  36  36  36  36  36   0  36  36   0  36  36  36  36  36  36  36  36  36  36  36  36  36  36  36  36  36  36   0  36  36  36  36  36  36  36  36  36  36  36  36  36  36  36  36  36  36  36  36  36  36  36  36  36  36  36  36  36  36  36

  38  38  38  38   0  38  38  38  38  38  38  38   0  38  38  38   0  38  38  38  38  38  38  38  38  38  38  38  38  38  38  38  38  38   0   0  38  38  38  38  38  38  38  38  38  38  38  38  38  38  38  38  38  38   0  38  38  38   0  38  38  38  38  38  38  38  38  38  38   0  38  38  38  38  38  38  38  38  38  38  38  38   0  38  38  38   0  38  38  38  38  38  38  38  38  38  38  38  38  38  38  38  38  38  38  38  38  38  38  38  38  38  38  38  38  38  38  38  38  38  38  38  38  38  38  38   0  38  38  38  38  38  38   0  38   0  38  38   0  38  38  38   0  38  38  38  38  38   0  38  38  38  38  38  38   0  38  38  38  38  38  38  38   0  38  38  38  38  38  38  38  38  38  38  38  38  38  38  38  38  38  38   0  38  38  38  38  38  38  38  38   0  38  38  38  38  38  38  38  38   0  38  38  38  38  38  38  38  38  38   0  38  38  38  38  38  38  38  38  38  38  38  38  38  38  38  38  38  38  38  38  38  38  38   0  38  38  38  38  38  38  38  38  38  38  38  38  38  38  38  38  38   0  38  38  38  38  38  38  38  38   0  38  38  38  38  38  38  38   0  38  38   0  38  38  38  38  38  38   0  38  38  38  38  38  38  38  38  38  38  38  38  38  38  38  38  38  38  38   0  38   0  38  38  38  38   0  38  38  38  38   0  38  38  38  38  38  38  38   0  38   0   0   0  38  38  38  38  38   0  38  38  38  38  38  38  38  38  38  38  38  38  38  38  38  38  38  38  38  38  38  38  38  38  38  38  38  38  38  38  38  38  38  38  38  38  38  38   0  38  38  38  38  38  38  38  38  38  38  38  38  38  38   0  38  38  38   0  38  38  38  38  38  38  38  38  38  38  38  38  38   0  38  38   0   0  38  38  38  38  38  38  38  38  38  38  38  38   0  38  38  38  38  38  38  38  38  38  38  38  38  38  38  38   0  38  38  38  38  38  38  38  38  38  38  38  38  38  38  38  38  38  38  38  38  38  38  38  38  38  38  38  38  38  38  38  38  38  38  38  38  38  38  38  38  38  38  38  38  38  38  38  38  38  38   0  38  38  38  38  38  38  38  38  38  38  38  38  38  38  38  38  38  38  38  38  38  38  38  38   0  38  38  38  38  38  38  38  38  38  38  38  38  38  38  38  38   0  38  38  38  38  38  38  38  38  38  38  38  38  38  38  38  38  38  38  38  38   0  38  38  38  38  38  38  38  38  38  38  38  38  38  38   0  38  38  38  38  38  38  38  38   0  38  38  38  38  38  38  38  38  38  38  38   0  38  38   0  38  38  38  38  38  38  38  38  38  38  38  38  38  38  38  38  38  38   0  38  38  38  38  38  38  38  38  38  38  38  38  38  38  38  38  38  38  38  38  38  38  38  38  38  38  38  38  38  38  38

  29  29  29  29   0  29  29  29  29  29  29  29   0  29  29  29   0  29  29  29  29  29  29  29  29  29  29  29  29  29  29  29  29  29   0   0  29  29  29  29  29  29  29  29  29  29  29  29  29  29  29  29  29  29   0  29  29  29   0  29  29  29  29  29  29  29  29  29  29   0  29  29  29  29  29  29  29  29  29  29  29  29   0  29  29  29   0  29  29  29  29  29  29  29  29  29  29  29  29  29  29  29  29  29  29  29  29  29  29  29  29  29  29  29  29  29  29  29  29  29  29  29  29  29  29  29   0  29  29  29  29  29  29   0  29   0  29  29   0  29  29  29   0  29  29  29  29  29   0  29  29  29  29  29  29   0  29  29  29  29  29  29  29   0  29  29  29  29  29  29  29  29  29  29  29  29  29  29  29  29  29  29   0  29  29  29  29  29  29  29  29   0  29  29  29  29  29  29  29  29   0  29  29  29  29  29  29  29  29  29   0  29  29  29  29  29  29  29  29  29  29  29  29  29  29  29  29  29  29  29  29  29  29  29   0  29  29  29  29  29  29  29  29  29  29  29  29  29  29  29  29  29   0  29  29  29  29  29  29  29  29   0  29  29  29  29  29  29  29   0  29  29   0  29  29  29  29  29  29   0  29  29  29  29  29  29  29  29  29  29  29  29  29  29  29  29  29  29  29   0  29   0  29  29  29  29   0  29  29  29  29   0  29  29  29  29  29  29  29   0  29   0   0   0  29  29  29  29  29   0  29  29  29  29  29  29  29  29  29  29  29  29  29  29  29  29  29  29  29  29  29  29  29  29  29  29  29  29  29  29  29  29  29  29  29  29  29  29   0  29  29  29  29  29  29  29  29  29  29  29  29  29  29   0  29  29  29   0  29  29  29  29  29  29  29  29  29  29  29  29  29   0  29  29   0   0  29  29  29  29  29  29  29  29  29  29  29  29   0  29  29  29  29  29  29  29  29  29  29  29  29  29  29  29   0  29  29  29  29  29  29  29  29  29  29  29  29  29  29  29  29  29  29  29  29  29  29  29  29  29  29  29  29  29  29  29  29  29  29  29  29  29  29  29  29  29  29  29  29  29  29  29  29  29  29   0  29  29  29  29  29  29  29  29  29  29  29  29  29  29  29  29  29  29  29  29  29  29  29  29   0  29  29  29  29  29  29  29  29  29  29  29  29  29  29  29  29   0  29  29  29  29  29  29  29  29  29  29  29  29  29  29  29  29  29  29  29  29   0  29  29  29  29  29  29  29  29  29  29  29  29  29  29   0  29  29  29  29  29  29  29  29   0  29  29  29  29  29  29  29  29  29  29  29   0  29  29   0  29  29  29  29  29  29  29  29  29  29  29  29  29  29  29  29  29  29   0  29  29  29  29  29  29  29  29  29  29  29  29  29  29  29  29  29  29  29  29  29  29  29  29  29  29  29  29  29  29  29

  28  28  28  28   0  28  28  28  28  28  28  28   0  28  28  28   0  28  28  28  28  28  28  28  28  28  28  28  28  28  28  28  28  28   0   0  28  28  28  28  28  28  28  28  28  28  28  28  28  28  28  28  28  28   0  28  28  28   0  28  28  28  28  28  28  28  28  28  28   0  28  28  28  28  28  28  28  28  28  28  28  28   0  28  28  28   0  28  28  28  28  28  28  28  28  28  28  28  28  28  28  28  28  28  28  28  28  28  28  28  28  28  28  28  28  28  28  28  28  28  28  28  28  28  28  28   0  28  28  28  28  28  28   0  28   0  28  28   0  28  28  28   0  28  28  28  28  28   0  28  28  28  28  28  28   0  28  28  28  28  28  28  28   0  28  28  28  28  28  28  28  28  28  28  28  28  28  28  28  28  28  28   0  28  28  28  28  28  28  28  28   0  28  28  28  28  28  28  28  28   0  28  28  28  28  28  28  28  28  28   0  28  28  28  28  28  28  28  28  28  28  28  28  28  28  28  28  28  28  28  28  28  28  28   0  28  28  28  28  28  28  28  28  28  28  28  28  28  28  28  28  28   0  28  28  28  28  28  28  28  28   0  28  28  28  28  28  28  28   0  28  28   0  28  28  28  28  28  28   0  28  28  28  28  28  28  28  28  28  28  28  28  28  28  28  28  28  28  28   0  28   0  28  28  28  28   0  28  28  28  28   0  28  28  28  28  28  28  28   0  28   0   0   0  28  28  28  28  28   0  28  28  28  28  28  28  28  28  28  28  28  28  28  28  28  28  28  28  28  28  28  28  28  28  28  28  28  28  28  28  28  28  28  28  28  28  28  28   0  28  28  28  28  28  28  28  28  28  28  28  28  28  28   0  28  28  28   0  28  28  28  28  28  28  28  28  28  28  28  28  28   0  28  28   0   0  28  28  28  28  28  28  28  28  28  28  28  28   0  28  28  28  28  28  28  28  28  28  28  28  28  28  28  28   0  28  28  28  28  28  28  28  28  28  28  28  28  28  28  28  28  28  28  28  28  28  28  28  28  28  28  28  28  28  28  28  28  28  28  28  28  28  28  28  28  28  28  28  28  28  28  28  28  28  28   0  28  28  28  28  28  28  28  28  28  28  28  28  28  28  28  28  28  28  28  28  28  28  28  28   0  28  28  28  28  28  28  28  28  28  28  28  28  28  28  28  28   0  28  28  28  28  28  28  28  28  28  28  28  28  28  28  28  28  28  28  28  28   0  28  28  28  28  28  28  28  28  28  28  28  28  28  28   0  28  28  28  28  28  28  28  28   0  28  28  28  28  28  28  28  28  28  28  28   0  28  28   0  28  28  28  28  28  28  28  28  28  28  28  28  28  28  28  28  28  28   0  28  28  28  28  28  28  28  28  28  28  28  28  28  28  28  28  28  28  28  28  28  28  28  28  28  28  28  28  28  28  28

************************************************************************
